# Objective value = 6
x0,1_4 0
x0,1_5 0
x0,1_14 0
x0,1_19 0
x0,1_25 0
x0,1_26 0
x0,1_30 0
x0,1_31 0
x0,1_43 0
x0,2_4 0
x0,2_5 1
x0,2_14 0
x0,2_19 0
x0,2_25 0
x0,2_26 0
x0,2_30 0
x0,2_31 0
x0,2_43 0
x0,3_4 0
x0,3_5 0
x0,3_14 0
x0,3_19 1
x0,3_25 0
x0,3_26 0
x0,3_30 0
x0,3_31 0
x0,3_43 0
x0,4_4 0
x0,4_5 0
x0,4_14 0
x0,4_19 0
x0,4_25 0
x0,4_26 0
x0,4_30 0
x0,4_31 1
x0,4_43 0
x0,5_4 0
x0,5_5 0
x0,5_14 0
x0,5_19 0
x0,5_25 0
x0,5_26 0
x0,5_30 0
x0,5_31 0
x0,5_43 0
x0,6_4 0
x0,6_5 0
x0,6_14 0
x0,6_19 0
x0,6_25 0
x0,6_26 0
x0,6_30 0
x0,6_31 0
x0,6_43 0
x0,7_4 0
x0,7_5 0
x0,7_14 0
x0,7_19 0
x0,7_25 0
x0,7_26 0
x0,7_30 0
x0,7_31 0
x0,7_43 0
x0,8_4 0
x0,8_5 0
x0,8_14 0
x0,8_19 0
x0,8_25 0
x0,8_26 0
x0,8_30 0
x0,8_31 0
x0,8_43 0
x0,9_4 0
x0,9_5 0
x0,9_14 0
x0,9_19 0
x0,9_25 0
x0,9_26 0
x0,9_30 0
x0,9_31 0
x0,9_43 0
x1,2_4 1
x1,2_5 0
x1,2_14 0
x1,2_19 0
x1,2_25 0
x1,2_26 0
x1,2_30 0
x1,2_31 0
x1,2_43 0
x1,3_4 0
x1,3_5 0
x1,3_14 0
x1,3_19 0
x1,3_25 0
x1,3_26 0
x1,3_30 0
x1,3_31 0
x1,3_43 0
x1,4_4 0
x1,4_5 0
x1,4_14 0
x1,4_19 0
x1,4_25 0
x1,4_26 0
x1,4_30 1
x1,4_31 0
x1,4_43 0
x1,5_4 0
x1,5_5 0
x1,5_14 0
x1,5_19 0
x1,5_25 0
x1,5_26 0
x1,5_30 0
x1,5_31 0
x1,5_43 1
x1,6_4 0
x1,6_5 0
x1,6_14 0
x1,6_19 0
x1,6_25 0
x1,6_26 0
x1,6_30 0
x1,6_31 0
x1,6_43 0
x1,7_4 0
x1,7_5 0
x1,7_14 0
x1,7_19 0
x1,7_25 0
x1,7_26 0
x1,7_30 0
x1,7_31 0
x1,7_43 0
x1,8_4 0
x1,8_5 0
x1,8_14 0
x1,8_19 0
x1,8_25 0
x1,8_26 0
x1,8_30 0
x1,8_31 0
x1,8_43 0
x1,9_4 0
x1,9_5 0
x1,9_14 0
x1,9_19 0
x1,9_25 0
x1,9_26 0
x1,9_30 0
x1,9_31 0
x1,9_43 0
x2,3_4 0
x2,3_5 0
x2,3_14 1
x2,3_19 0
x2,3_25 0
x2,3_26 0
x2,3_30 0
x2,3_31 0
x2,3_43 0
x2,4_4 0
x2,4_5 0
x2,4_14 0
x2,4_19 0
x2,4_25 0
x2,4_26 1
x2,4_30 0
x2,4_31 0
x2,4_43 0
x2,5_4 0
x2,5_5 0
x2,5_14 0
x2,5_19 0
x2,5_25 0
x2,5_26 0
x2,5_30 0
x2,5_31 0
x2,5_43 0
x2,6_4 0
x2,6_5 0
x2,6_14 0
x2,6_19 0
x2,6_25 0
x2,6_26 0
x2,6_30 0
x2,6_31 0
x2,6_43 0
x2,7_4 0
x2,7_5 0
x2,7_14 0
x2,7_19 0
x2,7_25 0
x2,7_26 0
x2,7_30 0
x2,7_31 0
x2,7_43 0
x2,8_4 0
x2,8_5 0
x2,8_14 0
x2,8_19 0
x2,8_25 0
x2,8_26 0
x2,8_30 0
x2,8_31 0
x2,8_43 0
x2,9_4 0
x2,9_5 0
x2,9_14 0
x2,9_19 0
x2,9_25 0
x2,9_26 0
x2,9_30 0
x2,9_31 0
x2,9_43 0
x3,4_4 0
x3,4_5 0
x3,4_14 0
x3,4_19 0
x3,4_25 0
x3,4_26 0
x3,4_30 0
x3,4_31 0
x3,4_43 0
x3,5_4 0
x3,5_5 0
x3,5_14 0
x3,5_19 0
x3,5_25 1
x3,5_26 0
x3,5_30 0
x3,5_31 0
x3,5_43 0
x3,6_4 0
x3,6_5 0
x3,6_14 0
x3,6_19 0
x3,6_25 0
x3,6_26 0
x3,6_30 0
x3,6_31 0
x3,6_43 0
x3,7_4 0
x3,7_5 0
x3,7_14 0
x3,7_19 0
x3,7_25 0
x3,7_26 0
x3,7_30 0
x3,7_31 0
x3,7_43 0
x3,8_4 0
x3,8_5 0
x3,8_14 0
x3,8_19 0
x3,8_25 0
x3,8_26 0
x3,8_30 0
x3,8_31 0
x3,8_43 0
x3,9_4 0
x3,9_5 0
x3,9_14 0
x3,9_19 0
x3,9_25 0
x3,9_26 0
x3,9_30 0
x3,9_31 0
x3,9_43 0
x4,5_4 0
x4,5_5 0
x4,5_14 0
x4,5_19 0
x4,5_25 0
x4,5_26 0
x4,5_30 0
x4,5_31 0
x4,5_43 0
x4,6_4 0
x4,6_5 0
x4,6_14 0
x4,6_19 0
x4,6_25 0
x4,6_26 0
x4,6_30 0
x4,6_31 0
x4,6_43 0
x4,7_4 0
x4,7_5 0
x4,7_14 0
x4,7_19 0
x4,7_25 0
x4,7_26 0
x4,7_30 0
x4,7_31 0
x4,7_43 0
x4,8_4 0
x4,8_5 0
x4,8_14 0
x4,8_19 0
x4,8_25 0
x4,8_26 0
x4,8_30 0
x4,8_31 0
x4,8_43 0
x4,9_4 0
x4,9_5 0
x4,9_14 0
x4,9_19 0
x4,9_25 0
x4,9_26 0
x4,9_30 0
x4,9_31 0
x4,9_43 0
x5,6_4 0
x5,6_5 0
x5,6_14 0
x5,6_19 0
x5,6_25 0
x5,6_26 0
x5,6_30 0
x5,6_31 0
x5,6_43 0
x5,7_4 0
x5,7_5 0
x5,7_14 0
x5,7_19 0
x5,7_25 0
x5,7_26 0
x5,7_30 0
x5,7_31 0
x5,7_43 0
x5,8_4 0
x5,8_5 0
x5,8_14 0
x5,8_19 0
x5,8_25 0
x5,8_26 0
x5,8_30 0
x5,8_31 0
x5,8_43 0
x5,9_4 0
x5,9_5 0
x5,9_14 0
x5,9_19 0
x5,9_25 0
x5,9_26 0
x5,9_30 0
x5,9_31 0
x5,9_43 0
x6,7_4 0
x6,7_5 0
x6,7_14 0
x6,7_19 0
x6,7_25 0
x6,7_26 0
x6,7_30 0
x6,7_31 0
x6,7_43 0
x6,8_4 0
x6,8_5 0
x6,8_14 0
x6,8_19 0
x6,8_25 0
x6,8_26 0
x6,8_30 0
x6,8_31 0
x6,8_43 0
x6,9_4 0
x6,9_5 0
x6,9_14 0
x6,9_19 0
x6,9_25 0
x6,9_26 0
x6,9_30 0
x6,9_31 0
x6,9_43 0
x7,8_4 0
x7,8_5 0
x7,8_14 0
x7,8_19 0
x7,8_25 0
x7,8_26 0
x7,8_30 0
x7,8_31 0
x7,8_43 0
x7,9_4 0
x7,9_5 0
x7,9_14 0
x7,9_19 0
x7,9_25 0
x7,9_26 0
x7,9_30 0
x7,9_31 0
x7,9_43 0
x8,9_4 0
x8,9_5 0
x8,9_14 0
x8,9_19 0
x8,9_25 0
x8,9_26 0
x8,9_30 0
x8,9_31 0
x8,9_43 0
z0 1
z1 1
z2 1
z3 1
z4 1
z5 1
z6 0
z7 0
z8 0
z9 0
p0 4
p1 5
p2 9
p3 23
p4 35
p5 48
p6 50
p7 51
p8 52
p9 55
